GLPSOL: GLPK LP/MIP Solver, v4.57
Parameter(s) specified in the command line:
 --model c4gen25.mod
Reading model section from c4gen25.mod...
Reading data section from c4gen25.mod...
33890 lines were read
Generating first...
Generating second...
Generating third...
Generating cr0...
Generating cr1...
Generating cr2...
Generating cr3...
Generating cr4...
Generating cr5...
Generating cr6...
Generating cr7...
Generating cr8...
Generating cr9...
Generating cr10...
Generating cr11...
Generating cr12...
Generating cr13...
Generating cr15...
Generating cr16...
Generating cr17...
Generating cr18...
Generating cr19...
Generating cr20...
Generating cr21...
Generating cr22...
Generating cr23...
Generating cr24...
Generating cr25...
Generating cr26...
Generating cr27...
Generating cr28...
Generating cr29...
Generating ct0...
Generating ct1...
Generating ct2...
Generating ct3...
Generating ct4...
Generating ct5...
Generating ct6...
Generating ct7...
Generating ct8...
Generating ct9...
Generating ct11...
Generating ct12...
Generating ct13...
Generating ct14...
Generating ct15...
Generating ct16...
Generating ct17...
Generating ct18...
Generating ct19...
Generating ct20...
Generating ct21...
Generating ct22...
Generating ct23...
Generating ct24...
Generating ct25...
Generating ct26...
Generating ct27...
Generating ct28...
Generating ct29...
Generating obj...
Model has been successfully generated
GLPK Integer Optimizer, v4.57
819 rows, 990000 columns, 4940760 non-zeros
990000 integer variables, all of which are binary
Preprocessing...
738 rows, 315436 columns, 946308 non-zeros
315436 integer variables, all of which are binary
Scaling...
 A: min|aij| =  1.000e+00  max|aij| =  1.000e+00  ratio =  1.000e+00
Problem data seem to be well scaled
Constructing initial basis...
Size of triangular part is 738
Solving LP relaxation...
GLPK Simplex Optimizer, v4.57
738 rows, 315436 columns, 946308 non-zeros
      0: obj =   1.100000000e+03 inf =   1.850e+02 (10)
    386: obj =   6.050000000e+02 inf =   3.624e-14 (0)
*   500: obj =   4.860000000e+02 inf =   2.669e-14 (97993) 1
*  1000: obj =   2.650000000e+02 inf =   0.000e+00 (55461) 4
*  1500: obj =   2.541098901e+02 inf =   3.523e-15 (46541) 3
*  1519: obj =   2.540000000e+02 inf =   3.421e-14 (0)
OPTIMAL LP SOLUTION FOUND
Integer optimization begins...
+  1519: mip =     not found yet >=              -inf        (1; 0)
+  1617: mip =     not found yet >=   2.540000000e+02        (3; 0)
+  1696: mip =     not found yet >=   2.540000000e+02        (4; 0)
+  1768: mip =     not found yet >=   2.540000000e+02        (5; 0)
+  1826: mip =     not found yet >=   2.540000000e+02        (6; 0)
+  1861: mip =     not found yet >=   2.540000000e+02        (7; 0)
+  1946: mip =     not found yet >=   2.540000000e+02        (8; 0)
+  1994: mip =     not found yet >=   2.540000000e+02        (9; 0)
+  2064: mip =     not found yet >=   2.540000000e+02        (10; 0)
+  2104: mip =     not found yet >=   2.540000000e+02        (11; 0)
Time used: 64.7 secs.  Memory used: 1186.4 Mb.
+  2147: mip =     not found yet >=   2.540000000e+02        (12; 0)
+  2180: mip =     not found yet >=   2.540000000e+02        (13; 0)
+  2223: mip =     not found yet >=   2.540000000e+02        (14; 0)
+  2257: mip =     not found yet >=   2.540000000e+02        (15; 0)
+  2279: mip =     not found yet >=   2.540000000e+02        (16; 0)
+  2294: mip =     not found yet >=   2.540000000e+02        (17; 0)
+  2339: mip =     not found yet >=   2.540000000e+02        (18; 0)
+  2372: mip =     not found yet >=   2.540000000e+02        (19; 0)
+  2402: mip =     not found yet >=   2.540000000e+02        (20; 0)
Time used: 126.7 secs.  Memory used: 1187.4 Mb.
+  2426: mip =     not found yet >=   2.540000000e+02        (21; 0)
+  2470: mip =     not found yet >=   2.540000000e+02        (22; 0)
+  2505: mip =     not found yet >=   2.540000000e+02        (23; 0)
+  2530: mip =     not found yet >=   2.540000000e+02        (24; 0)
+  2546: mip =     not found yet >=   2.540000000e+02        (25; 0)
+  2573: mip =     not found yet >=   2.540000000e+02        (26; 0)
+  2598: mip =     not found yet >=   2.540000000e+02        (27; 0)
+  2617: mip =     not found yet >=   2.540000000e+02        (28; 0)
+  2643: mip =     not found yet >=   2.540000000e+02        (29; 0)
Time used: 187.3 secs.  Memory used: 1188.3 Mb.
+  2670: mip =     not found yet >=   2.540000000e+02        (30; 0)
+  2671: mip =     not found yet >=   2.540000000e+02        (31; 0)
+  2672: mip =     not found yet >=   2.540000000e+02        (32; 0)
+  2673: mip =     not found yet >=   2.540000000e+02        (33; 0)
+  2674: mip =     not found yet >=   2.540000000e+02        (34; 0)
+  2675: mip =     not found yet >=   2.540000000e+02        (35; 0)
+  2676: mip =     not found yet >=   2.540000000e+02        (36; 0)
+  2677: mip =     not found yet >=   2.540000000e+02        (37; 0)
+  2678: mip =     not found yet >=   2.540000000e+02        (38; 0)
+  2679: mip =     not found yet >=   2.540000000e+02        (39; 0)
Time used: 249.5 secs.  Memory used: 1188.4 Mb.
+  2680: mip =     not found yet >=   2.540000000e+02        (40; 0)
+  2704: mip =     not found yet >=   2.540000000e+02        (41; 0)
+  2732: mip =     not found yet >=   2.540000000e+02        (42; 0)
+  2760: mip =     not found yet >=   2.540000000e+02        (43; 0)
+  2790: mip =     not found yet >=   2.540000000e+02        (44; 0)
+  2829: mip =     not found yet >=   2.540000000e+02        (45; 0)
+  2857: mip =     not found yet >=   2.540000000e+02        (46; 0)
+  2903: mip =     not found yet >=   2.540000000e+02        (47; 0)
+  2927: mip =     not found yet >=   2.540000000e+02        (48; 0)
+  2943: mip =     not found yet >=   2.540000000e+02        (49; 0)
Time used: 313.7 secs.  Memory used: 1189.4 Mb.
+  2970: mip =     not found yet >=   2.540000000e+02        (50; 0)
+  2987: mip =     not found yet >=   2.540000000e+02        (51; 0)
+  3000: mip =     not found yet >=   2.540000000e+02        (52; 0)
+  3014: mip =     not found yet >=   2.540000000e+02        (53; 0)
+  3046: mip =     not found yet >=   2.540000000e+02        (54; 0)
+  3067: mip =     not found yet >=   2.540000000e+02        (55; 0)
+  3088: mip =     not found yet >=   2.540000000e+02        (56; 0)
+  3098: mip =     not found yet >=   2.540000000e+02        (57; 0)
+  3130: mip =     not found yet >=   2.540000000e+02        (58; 0)
+  3142: mip =     not found yet >=   2.540000000e+02        (59; 0)
+  3162: mip =     not found yet >=   2.540000000e+02        (60; 0)
Time used: 379.3 secs.  Memory used: 1190.0 Mb.
+  3172: mip =     not found yet >=   2.540000000e+02        (61; 0)
+  3197: mip =     not found yet >=   2.540000000e+02        (62; 0)
+  3229: mip =     not found yet >=   2.540000000e+02        (63; 0)
+  3240: mip =     not found yet >=   2.540000000e+02        (64; 0)
+  3261: mip =     not found yet >=   2.540000000e+02        (65; 0)
+  3278: mip =     not found yet >=   2.540000000e+02        (66; 0)
+  3305: mip =     not found yet >=   2.540000000e+02        (67; 0)
+  3333: mip =     not found yet >=   2.540000000e+02        (68; 0)
+  3356: mip =     not found yet >=   2.540000000e+02        (69; 0)
+  3385: mip =     not found yet >=   2.540000000e+02        (70; 0)
+  3406: mip =     not found yet >=   2.540000000e+02        (71; 0)
Time used: 441.6 secs.  Memory used: 1190.9 Mb.
+  3431: mip =     not found yet >=   2.540000000e+02        (72; 0)
+  3457: mip =     not found yet >=   2.540000000e+02        (73; 0)
+  3484: mip =     not found yet >=   2.540000000e+02        (74; 0)
+  3512: mip =     not found yet >=   2.540000000e+02        (75; 0)
+  3541: mip =     not found yet >=   2.540000000e+02        (76; 0)
+  3582: mip =     not found yet >=   2.540000000e+02        (78; 0)
+  3639: mip =     not found yet >=   2.540000000e+02        (80; 0)
+  3676: mip =     not found yet >=   2.540000000e+02        (81; 0)
+  3728: mip =     not found yet >=   2.540000000e+02        (83; 0)
Time used: 502.1 secs.  Memory used: 1191.9 Mb.
+  3808: mip =     not found yet >=   2.540000000e+02        (85; 0)
+  3860: mip =     not found yet >=   2.540000000e+02        (87; 0)
+  3873: mip =     not found yet >=   2.540000000e+02        (89; 0)
+  3900: mip =     not found yet >=   2.540000000e+02        (91; 0)
+  3926: mip =     not found yet >=   2.540000000e+02        (93; 0)
+  3970: mip =     not found yet >=   2.540000000e+02        (95; 0)
+  4009: mip =     not found yet >=   2.540000000e+02        (97; 0)
Time used: 564.5 secs.  Memory used: 1193.1 Mb.
+  4054: mip =     not found yet >=   2.540000000e+02        (99; 0)
+  4086: mip =     not found yet >=   2.540000000e+02        (101; 0)
+  4135: mip =     not found yet >=   2.540000000e+02        (103; 0)
+  4175: mip =     not found yet >=   2.540000000e+02        (105; 0)
+  4218: mip =     not found yet >=   2.540000000e+02        (107; 0)
+  4262: mip =     not found yet >=   2.540000000e+02        (109; 0)
+  4296: mip =     not found yet >=   2.540000000e+02        (111; 0)
+  4350: mip =     not found yet >=   2.540000000e+02        (113; 0)
+  4398: mip =     not found yet >=   2.540000000e+02        (115; 0)
Time used: 626.5 secs.  Memory used: 1194.6 Mb.
+  4439: mip =     not found yet >=   2.540000000e+02        (117; 0)
+  4476: mip =     not found yet >=   2.540000000e+02        (119; 0)
+  4560: mip =     not found yet >=   2.540000000e+02        (122; 0)
+  4595: mip =     not found yet >=   2.540000000e+02        (124; 0)
+  4621: mip =     not found yet >=   2.540000000e+02        (126; 0)
+  4642: mip =     not found yet >=   2.540000000e+02        (128; 0)
+  4686: mip =     not found yet >=   2.540000000e+02        (130; 0)
+  4726: mip =     not found yet >=   2.540000000e+02        (132; 0)
+  4781: mip =     not found yet >=   2.540000000e+02        (135; 0)
+  4827: mip =     not found yet >=   2.540000000e+02        (138; 0)
+  4867: mip =     not found yet >=   2.540000000e+02        (141; 0)
Time used: 687.0 secs.  Memory used: 1196.6 Mb.
+  4880: mip =     not found yet >=   2.540000000e+02        (144; 0)
+  4898: mip =     not found yet >=   2.540000000e+02        (148; 0)
+  4941: mip =     not found yet >=   2.540000000e+02        (152; 0)
+  4968: >>>>>   2.540000000e+02 >=   2.540000000e+02 < 0.1% (155; 0)
+  4968: mip =   2.540000000e+02 >=     tree is empty   0.0% (0; 309)
INTEGER OPTIMAL SOLUTION FOUND
Time used:   727.6 secs
Memory used: 1517.3 Mb (1590978024 bytes)
result: c:0 r:25 t:10 time:0
result: c:1 r:27 t:26 time:2
result: c:2 r:14 t:0 time:0
result: c:3 r:28 t:28 time:3
result: c:4 r:14 t:26 time:1
result: c:5 r:16 t:7 time:3
result: c:6 r:22 t:10 time:2
result: c:7 r:14 t:2 time:3
result: c:8 r:14 t:7 time:4
result: c:9 r:16 t:7 time:0
result: c:10 r:14 t:7 time:6
result: c:11 r:14 t:2 time:5
result: c:12 r:14 t:2 time:7
result: c:13 r:14 t:1 time:8
result: c:14 r:14 t:1 time:9
result: c:15 r:14 t:9 time:10
result: c:16 r:17 t:7 time:2
result: c:17 r:14 t:3 time:2
result: c:18 r:0 t:18 time:1
result: c:19 r:26 t:12 time:2
result: c:20 r:9 t:9 time:1
result: c:21 r:27 t:2 time:1
result: c:22 r:19 t:1 time:0
result: c:23 r:0 t:1 time:3
result: c:24 r:0 t:9 time:2
result: c:25 r:0 t:9 time:0
result: c:26 r:27 t:13 time:0
result: c:27 r:28 t:8 time:1
result: c:28 r:5 t:18 time:0
result: c:29 r:4 t:5 time:2
result: c:30 r:19 t:1 time:2
result: c:31 r:3 t:2 time:0
result: c:32 r:3 t:15 time:2
result: c:33 r:11 t:21 time:1
result: c:34 r:3 t:3 time:1
result: c:35 r:11 t:18 time:2
result: c:36 r:7 t:27 time:1
result: c:37 r:19 t:10 time:3
result: c:38 r:16 t:20 time:2
result: c:39 r:18 t:28 time:2
result: c:40 r:3 t:0 time:3
result: c:41 r:26 t:27 time:0
result: c:42 r:22 t:22 time:0
result: c:43 r:28 t:15 time:0
result: c:44 r:10 t:27 time:2
result: c:45 r:18 t:28 time:1
result: c:46 r:8 t:11 time:0
result: c:47 r:8 t:22 time:1
result: c:48 r:2 t:20 time:0
result: c:49 r:21 t:19 time:0
result: c:50 r:1 t:28 time:0
result: c:51 r:15 t:11 time:1
result: c:52 r:16 t:13 time:1
result: c:53 r:7 t:12 time:0
result: c:54 r:20 t:21 time:0
result: c:55 r:28 t:19 time:2
result: c:56 r:11 t:14 time:0
result: c:57 r:9 t:11 time:2
result: c:58 r:21 t:16 time:1
result: c:59 r:26 t:0 time:1
result: c:60 r:18 t:5 time:0
result: c:61 r:4 t:4 time:0
result: c:62 r:23 t:16 time:0
result: c:63 r:8 t:13 time:2
result: c:64 r:24 t:4 time:2
result: c:65 r:23 t:2 time:2
result: c:66 r:13 t:4 time:1
result: c:67 r:23 t:17 time:1
result: c:68 r:20 t:24 time:2
result: c:69 r:17 t:12 time:1
result: c:70 r:2 t:0 time:2
result: c:71 r:21 t:14 time:2
result: c:72 r:4 t:19 time:1
result: c:73 r:17 t:8 time:0
result: c:74 r:12 t:22 time:2
result: c:75 r:10 t:24 time:1
result: c:76 r:24 t:1 time:1
result: c:77 r:10 t:6 time:0
result: c:78 r:22 t:6 time:1
result: c:79 r:19 t:10 time:1
result: c:80 r:13 t:24 time:0
result: c:81 r:25 t:6 time:2
result: c:82 r:25 t:5 time:1
result: c:83 r:24 t:3 time:0
result: c:84 r:9 t:25 time:0
result: c:85 r:15 t:23 time:0
result: c:86 r:5 t:23 time:1
result: c:87 r:12 t:25 time:1
result: c:88 r:5 t:23 time:2
result: c:89 r:20 t:14 time:1
result: c:90 r:6 t:16 time:2
result: c:91 r:15 t:17 time:2
result: c:92 r:1 t:8 time:2
result: c:93 r:6 t:17 time:0
result: c:94 r:1 t:7 time:1
result: c:95 r:12 t:26 time:0
result: c:96 r:6 t:15 time:1
result: c:97 r:2 t:20 time:1
result: c:98 r:13 t:25 time:2
result: c:99 r:7 t:21 time:2
Model has been successfully processed

Timeslot used: 11
